C  H  O  Pd                             
   1.00000000000000     
    16.4953869915197799    0.0000000000000000    0.0000000000000000
     6.8730779131332422   11.9045201499262436    0.0000000000000000
     0.0000000000000000    0.0000000000000000   23.9789513864370605
   C    H    O    Pd
    13    12     2   120
Selective dynamics
Direct
  0.2900406713940987  0.3704406391785440  0.3529673865658503   T   T   T
  0.1889009574729941  0.4255593558689933  0.3534034972531194   T   T   T
  0.1424565065450768  0.3610736010302023  0.3537565480460895   T   T   T
  0.1944837853395348  0.2393819630683894  0.3531920463822590   T   T   T
  0.2958183823586777  0.1849586125687707  0.3547161484371766   T   T   T
  0.3429636023083885  0.2486507739125672  0.3540121518921546   T   T   T
  0.3370491401026461  0.4357203762222826  0.3579698042000848   T   T   T
  0.4665873205236275  0.6225182403684911  0.3572129220381082   T   T   T
  0.4028519426486463  0.7437255926922017  0.3527157446959869   T   T   T
  0.4462927948534300  0.8133120609724162  0.3527281109381575   T   T   T
  0.5459739279278589  0.7669707543390885  0.3534323199737384   T   T   T
  0.6085394621768935  0.6463536476000229  0.3527012573572879   T   T   T
  0.5664154245566442  0.5762024207383548  0.3528559470114846   T   T   T
  0.4129966094549132  0.3881192936278667  0.3665869198109986   T   T   T
  0.1506166082273340  0.5145526066790523  0.3639680217247612   T   T   T
  0.0681545720167594  0.4030941924855759  0.3639957237682301   T   T   T
  0.1614975591913315  0.1950410473861839  0.3717901794095119   T   T   T
  0.3350203901741071  0.0965472443553985  0.3661059169156480   T   T   T
  0.4171247162937951  0.2077923739406425  0.3646254790735992   T   T   T
  0.3737072629369424  0.5707543411531075  0.3728089462868258   T   T   T
  0.3351080844253886  0.7767402973249730  0.3736004801305118   T   T   T
  0.4016190359045578  0.9016577153408012  0.3631733240968847   T   T   T
  0.5742266581294833  0.8206570532149471  0.3652960784453121   T   T   T
  0.6774838716024326  0.6130031244808559  0.3720059848527814   T   T   T
  0.6092237846872539  0.4883332571638464  0.3647030738020819   T   T   T
  0.2924879338125904  0.5445400409072656  0.3634745409640171   T   T   T
  0.4411001762678724  0.5524722084713888  0.3803970129859756   T   T   T
  0.0000000000000000  0.0000000000000000  0.0000000000000000   F   F   F
  0.1666666666666643  0.0000000000000000  0.0000000000000000   F   F   F
  0.3333333333333357  0.0000000000000000  0.0000000000000000   F   F   F
  0.5000000000000000  0.0000000000000000  0.0000000000000000   F   F   F
  0.6666666666666643  0.0000000000000000  0.0000000000000000   F   F   F
  0.8333333333333357  0.0000000000000000  0.0000000000000000   F   F   F
  0.0000000000000000  0.2000000000000028  0.0000000000000000   F   F   F
  0.1666666666666643  0.2000000000000028  0.0000000000000000   F   F   F
  0.3333333333333357  0.2000000000000028  0.0000000000000000   F   F   F
  0.5000000000000000  0.2000000000000028  0.0000000000000000   F   F   F
  0.6666666666666643  0.2000000000000028  0.0000000000000000   F   F   F
  0.8333333333333357  0.2000000000000028  0.0000000000000000   F   F   F
  0.0000000000000000  0.3999999999999986  0.0000000000000000   F   F   F
  0.1666666666666643  0.3999999999999986  0.0000000000000000   F   F   F
  0.3333333333333357  0.3999999999999986  0.0000000000000000   F   F   F
  0.5000000000000000  0.3999999999999986  0.0000000000000000   F   F   F
  0.6666666666666643  0.3999999999999986  0.0000000000000000   F   F   F
  0.8333333333333357  0.3999999999999986  0.0000000000000000   F   F   F
  0.0000000000000000  0.6000000000000014  0.0000000000000000   F   F   F
  0.1666666666666643  0.6000000000000014  0.0000000000000000   F   F   F
  0.3333333333333357  0.6000000000000014  0.0000000000000000   F   F   F
  0.5000000000000000  0.6000000000000014  0.0000000000000000   F   F   F
  0.6666666666666643  0.6000000000000014  0.0000000000000000   F   F   F
  0.8333333333333357  0.6000000000000014  0.0000000000000000   F   F   F
  0.0000000000000000  0.7999999999999972  0.0000000000000000   F   F   F
  0.1666666666666643  0.7999999999999972  0.0000000000000000   F   F   F
  0.3333333333333357  0.7999999999999972  0.0000000000000000   F   F   F
  0.5000000000000000  0.7999999999999972  0.0000000000000000   F   F   F
  0.6666666666666643  0.7999999999999972  0.0000000000000000   F   F   F
  0.8333333333333357  0.7999999999999972  0.0000000000000000   F   F   F
  0.0555555555555571  0.0666666666666700  0.0936128444665414   F   F   F
  0.2222222222222214  0.0666666666666700  0.0936128444665414   F   F   F
  0.3888888888888857  0.0666666666666700  0.0936128444665414   F   F   F
  0.5555555555555571  0.0666666666666700  0.0936128444665414   F   F   F
  0.7222222222222214  0.0666666666666700  0.0936128444665414   F   F   F
  0.8888888888888857  0.0666666666666700  0.0936128444665414   F   F   F
  0.0555555555555571  0.2666666666666657  0.0936128444665414   F   F   F
  0.2222222222222214  0.2666666666666657  0.0936128444665414   F   F   F
  0.3888888888888857  0.2666666666666657  0.0936128444665414   F   F   F
  0.5555555555555571  0.2666666666666657  0.0936128444665414   F   F   F
  0.7222222222222214  0.2666666666666657  0.0936128444665414   F   F   F
  0.8888888888888857  0.2666666666666657  0.0936128444665414   F   F   F
  0.0555555555555571  0.4666666666666686  0.0936128444665414   F   F   F
  0.2222222222222214  0.4666666666666686  0.0936128444665414   F   F   F
  0.3888888888888857  0.4666666666666686  0.0936128444665414   F   F   F
  0.5555555555555571  0.4666666666666686  0.0936128444665414   F   F   F
  0.7222222222222214  0.4666666666666686  0.0936128444665414   F   F   F
  0.8888888888888857  0.4666666666666686  0.0936128444665414   F   F   F
  0.0555555555555571  0.6666666666666643  0.0936128444665414   F   F   F
  0.2222222222222214  0.6666666666666643  0.0936128444665414   F   F   F
  0.3888888888888857  0.6666666666666643  0.0936128444665414   F   F   F
  0.5555555555555571  0.6666666666666643  0.0936128444665414   F   F   F
  0.7222222222222214  0.6666666666666643  0.0936128444665414   F   F   F
  0.8888888888888857  0.6666666666666643  0.0936128444665414   F   F   F
  0.0555555555555571  0.8666666666666671  0.0936128444665414   F   F   F
  0.2222222222222214  0.8666666666666671  0.0936128444665414   F   F   F
  0.3888888888888857  0.8666666666666671  0.0936128444665414   F   F   F
  0.5555555555555571  0.8666666666666671  0.0936128444665414   F   F   F
  0.7222222222222214  0.8666666666666671  0.0936128444665414   F   F   F
  0.8888888888888857  0.8666666666666671  0.0936128444665414   F   F   F
  0.9449226037510291  0.1336453097956963  0.1798983191604790   T   T   T
  0.1126029948529205  0.1341762915542363  0.1809194847681501   T   T   T
  0.2779674067768760  0.1334988361140305  0.1805782729114360   T   T   T
  0.4432691192983433  0.1343410772256984  0.1801483705281217   T   T   T
  0.6106810997782339  0.1334084399048331  0.1799236592345316   T   T   T
  0.7778003131402683  0.1334128799394641  0.1799309169839743   T   T   T
  0.9441203516473055  0.3336950885849931  0.1798300000886782   T   T   T
  0.1111265551995637  0.3335395446071261  0.1803817673515170   T   T   T
  0.2765984320030963  0.3333194311279878  0.1804377094941968   T   T   T
  0.4432927334883200  0.3340174533333706  0.1802749927961784   T   T   T
  0.6108523593260726  0.3331813604095573  0.1799902715512063   T   T   T
  0.7777788450122585  0.3331265119631588  0.1798240945263818   T   T   T
  0.9437263838523715  0.5333103685625196  0.1798849376558564   T   T   T
  0.1108583012233869  0.5333566098239407  0.1799063041733112   T   T   T
  0.2778475710656663  0.5325423191007349  0.1799483684359982   T   T   T
  0.4443899282670767  0.5340240855854985  0.1804348196045041   T   T   T
  0.6110167819171748  0.5334973210879602  0.1805199426363840   T   T   T
  0.7758721011160805  0.5343725788743410  0.1807898553109628   T   T   T
  0.9443521738666035  0.7336671536147571  0.1797577053544523   T   T   T
  0.1111908824648332  0.7333233988806296  0.1798967682547358   T   T   T
  0.2784420347261862  0.7331593452664237  0.1808532623702364   T   T   T
  0.4452140551196356  0.7323536326010517  0.1806402362129761   T   T   T
  0.6108450038729631  0.7335125277930399  0.1803173368488230   T   T   T
  0.7778374654503278  0.7334939755958080  0.1798336980488677   T   T   T
  0.9444643838867434  0.9336541939474050  0.1798748278683857   T   T   T
  0.1109553940992170  0.9339810169934200  0.1798310941336299   T   T   T
  0.2788317974341489  0.9305763050150820  0.1808684881857729   T   T   T
  0.4445890048183661  0.9326644754637761  0.1797634226457923   T   T   T
  0.6112428378702385  0.9335177694380824  0.1798034544960419   T   T   T
  0.7778102842025932  0.9336050708893403  0.1799312455924752   T   T   T
  0.0001941318660054  0.0000823525521549  0.2679376573217413   T   T   T
  0.1670607258540776  0.9992265869033466  0.2679236699018555   T   T   T
  0.3327836153907590  0.9999184700671161  0.2675284488784397   T   T   T
  0.5010955344312862  0.0000850699906633  0.2672017735250392   T   T   T
  0.6675692007783320 -0.0003079149867995  0.2679393983436723   T   T   T
  0.8336136841439772  0.0001920658810356  0.2679252591758405   T   T   T
 -0.0000802875409275  0.1998057216661953  0.2679230643295542   T   T   T
  0.1666410800806589  0.2007937667784133  0.2706073584420066   T   T   T
  0.3351983223041745  0.1973183801500766  0.2695770195959110   T   T   T
  0.5021338258597156  0.1985344652145544  0.2679118940807630   T   T   T
  0.6674713295851071  0.1992138054859930  0.2680147910607200   T   T   T
  0.8338772264172247  0.1994022379954916  0.2678008964993674   T   T   T
  0.9979360808514551  0.4004139210161628  0.2678066671732597   T   T   T
  0.1616180837596649  0.4040917084821768  0.2685510281751874   T   T   T
  0.3330927563966566  0.3980499786535105  0.2688527524753362   T   T   T
  0.5007154844590729  0.3976792107736919  0.2680009201624408   T   T   T
  0.6683287087237844  0.3976626975603992  0.2678565692306253   T   T   T
  0.8334372245211669  0.3995875806551211  0.2678218300156741   T   T   T
  0.9977887502274262  0.6025515132034955  0.2674368088921742   T   T   T
  0.1648106464374401  0.6024592916098163  0.2678116907791089   T   T   T
  0.3319958743566406  0.5980526214209899  0.2683326002836729   T   T   T
  0.5022692539289335  0.5949747451179944  0.2692339772518046   T   T   T
  0.6663479642555564  0.6011060835507567  0.2704020418302105   T   T   T
  0.8327828059942434  0.6005354357546239  0.2679080827275130   T   T   T
 -0.0008126710650067  0.8011543358202543  0.2678279193403654   T   T   T
  0.1664298465999048  0.8007476514254439  0.2677962270411994   T   T   T
  0.3367517031606839  0.7953890995109032  0.2711239863432361   T   T   T
  0.5005971930326775  0.8024084504737121  0.2684657709067710   T   T   T
  0.6676273691418319  0.8005991495328562  0.2677967467357046   T   T   T
  0.8332311869920335  0.8004498234768601  0.2678901966299657   T   T   T
 
  0.00000000E+00  0.00000000E+00  0.00000000E+00
  0.00000000E+00  0.00000000E+00  0.00000000E+00
  0.00000000E+00  0.00000000E+00  0.00000000E+00
  0.00000000E+00  0.00000000E+00  0.00000000E+00
  0.00000000E+00  0.00000000E+00  0.00000000E+00
  0.00000000E+00  0.00000000E+00  0.00000000E+00
  0.00000000E+00  0.00000000E+00  0.00000000E+00
  0.00000000E+00  0.00000000E+00  0.00000000E+00
  0.00000000E+00  0.00000000E+00  0.00000000E+00
  0.00000000E+00  0.00000000E+00  0.00000000E+00
  0.00000000E+00  0.00000000E+00  0.00000000E+00
  0.00000000E+00  0.00000000E+00  0.00000000E+00
  0.00000000E+00  0.00000000E+00  0.00000000E+00
  0.00000000E+00  0.00000000E+00  0.00000000E+00
  0.00000000E+00  0.00000000E+00  0.00000000E+00
  0.00000000E+00  0.00000000E+00  0.00000000E+00
  0.00000000E+00  0.00000000E+00  0.00000000E+00
  0.00000000E+00  0.00000000E+00  0.00000000E+00
  0.00000000E+00  0.00000000E+00  0.00000000E+00
  0.00000000E+00  0.00000000E+00  0.00000000E+00
  0.00000000E+00  0.00000000E+00  0.00000000E+00
  0.00000000E+00  0.00000000E+00  0.00000000E+00
  0.00000000E+00  0.00000000E+00  0.00000000E+00
  0.00000000E+00  0.00000000E+00  0.00000000E+00
  0.00000000E+00  0.00000000E+00  0.00000000E+00
  0.00000000E+00  0.00000000E+00  0.00000000E+00
  0.00000000E+00  0.00000000E+00  0.00000000E+00
  0.00000000E+00  0.00000000E+00  0.00000000E+00
  0.00000000E+00  0.00000000E+00  0.00000000E+00
  0.00000000E+00  0.00000000E+00  0.00000000E+00
  0.00000000E+00  0.00000000E+00  0.00000000E+00
  0.00000000E+00  0.00000000E+00  0.00000000E+00
  0.00000000E+00  0.00000000E+00  0.00000000E+00
  0.00000000E+00  0.00000000E+00  0.00000000E+00
  0.00000000E+00  0.00000000E+00  0.00000000E+00
  0.00000000E+00  0.00000000E+00  0.00000000E+00
  0.00000000E+00  0.00000000E+00  0.00000000E+00
  0.00000000E+00  0.00000000E+00  0.00000000E+00
  0.00000000E+00  0.00000000E+00  0.00000000E+00
  0.00000000E+00  0.00000000E+00  0.00000000E+00
  0.00000000E+00  0.00000000E+00  0.00000000E+00
  0.00000000E+00  0.00000000E+00  0.00000000E+00
  0.00000000E+00  0.00000000E+00  0.00000000E+00
  0.00000000E+00  0.00000000E+00  0.00000000E+00
  0.00000000E+00  0.00000000E+00  0.00000000E+00
  0.00000000E+00  0.00000000E+00  0.00000000E+00
  0.00000000E+00  0.00000000E+00  0.00000000E+00
  0.00000000E+00  0.00000000E+00  0.00000000E+00
  0.00000000E+00  0.00000000E+00  0.00000000E+00
  0.00000000E+00  0.00000000E+00  0.00000000E+00
  0.00000000E+00  0.00000000E+00  0.00000000E+00
  0.00000000E+00  0.00000000E+00  0.00000000E+00
  0.00000000E+00  0.00000000E+00  0.00000000E+00
  0.00000000E+00  0.00000000E+00  0.00000000E+00
  0.00000000E+00  0.00000000E+00  0.00000000E+00
  0.00000000E+00  0.00000000E+00  0.00000000E+00
  0.00000000E+00  0.00000000E+00  0.00000000E+00
  0.00000000E+00  0.00000000E+00  0.00000000E+00
  0.00000000E+00  0.00000000E+00  0.00000000E+00
  0.00000000E+00  0.00000000E+00  0.00000000E+00
  0.00000000E+00  0.00000000E+00  0.00000000E+00
  0.00000000E+00  0.00000000E+00  0.00000000E+00
  0.00000000E+00  0.00000000E+00  0.00000000E+00
  0.00000000E+00  0.00000000E+00  0.00000000E+00
  0.00000000E+00  0.00000000E+00  0.00000000E+00
  0.00000000E+00  0.00000000E+00  0.00000000E+00
  0.00000000E+00  0.00000000E+00  0.00000000E+00
  0.00000000E+00  0.00000000E+00  0.00000000E+00
  0.00000000E+00  0.00000000E+00  0.00000000E+00
  0.00000000E+00  0.00000000E+00  0.00000000E+00
  0.00000000E+00  0.00000000E+00  0.00000000E+00
  0.00000000E+00  0.00000000E+00  0.00000000E+00
  0.00000000E+00  0.00000000E+00  0.00000000E+00
  0.00000000E+00  0.00000000E+00  0.00000000E+00
  0.00000000E+00  0.00000000E+00  0.00000000E+00
  0.00000000E+00  0.00000000E+00  0.00000000E+00
  0.00000000E+00  0.00000000E+00  0.00000000E+00
  0.00000000E+00  0.00000000E+00  0.00000000E+00
  0.00000000E+00  0.00000000E+00  0.00000000E+00
  0.00000000E+00  0.00000000E+00  0.00000000E+00
  0.00000000E+00  0.00000000E+00  0.00000000E+00
  0.00000000E+00  0.00000000E+00  0.00000000E+00
  0.00000000E+00  0.00000000E+00  0.00000000E+00
  0.00000000E+00  0.00000000E+00  0.00000000E+00
  0.00000000E+00  0.00000000E+00  0.00000000E+00
  0.00000000E+00  0.00000000E+00  0.00000000E+00
  0.00000000E+00  0.00000000E+00  0.00000000E+00
  0.00000000E+00  0.00000000E+00  0.00000000E+00
  0.00000000E+00  0.00000000E+00  0.00000000E+00
  0.00000000E+00  0.00000000E+00  0.00000000E+00
  0.00000000E+00  0.00000000E+00  0.00000000E+00
  0.00000000E+00  0.00000000E+00  0.00000000E+00
  0.00000000E+00  0.00000000E+00  0.00000000E+00
  0.00000000E+00  0.00000000E+00  0.00000000E+00
  0.00000000E+00  0.00000000E+00  0.00000000E+00
  0.00000000E+00  0.00000000E+00  0.00000000E+00
  0.00000000E+00  0.00000000E+00  0.00000000E+00
  0.00000000E+00  0.00000000E+00  0.00000000E+00
  0.00000000E+00  0.00000000E+00  0.00000000E+00
  0.00000000E+00  0.00000000E+00  0.00000000E+00
  0.00000000E+00  0.00000000E+00  0.00000000E+00
  0.00000000E+00  0.00000000E+00  0.00000000E+00
  0.00000000E+00  0.00000000E+00  0.00000000E+00
  0.00000000E+00  0.00000000E+00  0.00000000E+00
  0.00000000E+00  0.00000000E+00  0.00000000E+00
  0.00000000E+00  0.00000000E+00  0.00000000E+00
  0.00000000E+00  0.00000000E+00  0.00000000E+00
  0.00000000E+00  0.00000000E+00  0.00000000E+00
  0.00000000E+00  0.00000000E+00  0.00000000E+00
  0.00000000E+00  0.00000000E+00  0.00000000E+00
  0.00000000E+00  0.00000000E+00  0.00000000E+00
  0.00000000E+00  0.00000000E+00  0.00000000E+00
  0.00000000E+00  0.00000000E+00  0.00000000E+00
  0.00000000E+00  0.00000000E+00  0.00000000E+00
  0.00000000E+00  0.00000000E+00  0.00000000E+00
  0.00000000E+00  0.00000000E+00  0.00000000E+00
  0.00000000E+00  0.00000000E+00  0.00000000E+00
  0.00000000E+00  0.00000000E+00  0.00000000E+00
  0.00000000E+00  0.00000000E+00  0.00000000E+00
  0.00000000E+00  0.00000000E+00  0.00000000E+00
  0.00000000E+00  0.00000000E+00  0.00000000E+00
  0.00000000E+00  0.00000000E+00  0.00000000E+00
  0.00000000E+00  0.00000000E+00  0.00000000E+00
  0.00000000E+00  0.00000000E+00  0.00000000E+00
  0.00000000E+00  0.00000000E+00  0.00000000E+00
  0.00000000E+00  0.00000000E+00  0.00000000E+00
  0.00000000E+00  0.00000000E+00  0.00000000E+00
  0.00000000E+00  0.00000000E+00  0.00000000E+00
  0.00000000E+00  0.00000000E+00  0.00000000E+00
  0.00000000E+00  0.00000000E+00  0.00000000E+00
  0.00000000E+00  0.00000000E+00  0.00000000E+00
  0.00000000E+00  0.00000000E+00  0.00000000E+00
  0.00000000E+00  0.00000000E+00  0.00000000E+00
  0.00000000E+00  0.00000000E+00  0.00000000E+00
  0.00000000E+00  0.00000000E+00  0.00000000E+00
  0.00000000E+00  0.00000000E+00  0.00000000E+00
  0.00000000E+00  0.00000000E+00  0.00000000E+00
  0.00000000E+00  0.00000000E+00  0.00000000E+00
  0.00000000E+00  0.00000000E+00  0.00000000E+00
  0.00000000E+00  0.00000000E+00  0.00000000E+00
  0.00000000E+00  0.00000000E+00  0.00000000E+00
  0.00000000E+00  0.00000000E+00  0.00000000E+00
  0.00000000E+00  0.00000000E+00  0.00000000E+00
  0.00000000E+00  0.00000000E+00  0.00000000E+00
  0.00000000E+00  0.00000000E+00  0.00000000E+00
  0.00000000E+00  0.00000000E+00  0.00000000E+00
  0.00000000E+00  0.00000000E+00  0.00000000E+00
