C  H                                    
   1.00000000000000     
    30.0000000000000000    0.0000000000000000    0.0000000000000000
     0.0000000000000000   30.0000000000000000    0.0000000000000000
     0.0000000000000000    0.0000000000000000   30.0000000000000000
   C    H 
     6     6
Direct
  0.5000009405138767  0.5466379453341366  0.4999952814899359
  0.5403848785852402  0.5233195319775987  0.4999980531869624
  0.5403860238810918  0.4766783325119646  0.5000015249104039
  0.5000005825160184  0.4533606935701430  0.4999960577686749
  0.4596167873152116  0.4766791549973643  0.5000032662954343
  0.4596155348547218  0.5233202724772547  0.4999981319439870
  0.5000002255050877  0.5829603338245988  0.4999973651069923
  0.5718441956993364  0.5414794779678236  0.4999976179762605
  0.5718446872587188  0.4585177962458765  0.4999987971823285
  0.4999999980949253  0.4170398867744497  0.4999972764913688
  0.4281577000169262  0.4585188149272426  0.4999989928421662
  0.4281552220034844  0.5414799001996509  0.4999973693667715
 
  0.00000000E+00  0.00000000E+00  0.00000000E+00
  0.00000000E+00  0.00000000E+00  0.00000000E+00
  0.00000000E+00  0.00000000E+00  0.00000000E+00
  0.00000000E+00  0.00000000E+00  0.00000000E+00
  0.00000000E+00  0.00000000E+00  0.00000000E+00
  0.00000000E+00  0.00000000E+00  0.00000000E+00
  0.00000000E+00  0.00000000E+00  0.00000000E+00
  0.00000000E+00  0.00000000E+00  0.00000000E+00
  0.00000000E+00  0.00000000E+00  0.00000000E+00
  0.00000000E+00  0.00000000E+00  0.00000000E+00
  0.00000000E+00  0.00000000E+00  0.00000000E+00
  0.00000000E+00  0.00000000E+00  0.00000000E+00
