C  H  O  Pd                             
   1.00000000000000     
    16.4953869915197799    0.0000000000000000    0.0000000000000000
     6.8730779131332422   11.9045201499262436    0.0000000000000000
     0.0000000000000000    0.0000000000000000   23.9789513864370605
   C    H    O    Pd
     7     6     1   120
Selective dynamics
Direct
  0.2949921987344122  0.3713944315479292  0.3523009085208081   T   T   T
  0.1937095572585889  0.4270477328180518  0.3527609410725346   T   T   T
  0.1465979191156049  0.3631327970893610  0.3539695903721906   T   T   T
  0.1978548825163459  0.2414817381396779  0.3534178582196852   T   T   T
  0.2992571839711415  0.1861350703602917  0.3551229088386921   T   T   T
  0.3468198836382808  0.2494230260501378  0.3539414692915853   T   T   T
  0.3436863330257802  0.4362797891295950  0.3567502171270749   T   T   T
  0.4199388239259800  0.3861830175371210  0.3654064398428470   T   T   T
  0.1557218113926302  0.5162079648666269  0.3631572059841799   T   T   T
  0.0725025933856538  0.4057954795608514  0.3646534333727326   T   T   T
  0.1644834698986290  0.1976916727094451  0.3720676876739574   T   T   T
  0.3381542630130490  0.0978528099521107  0.3668797328402046   T   T   T
  0.4210402313087894  0.2080506078356477  0.3646005454826134   T   T   T
  0.3017326881409746  0.5441534670038185  0.3594161615321350   T   T   T
  0.0000000000000000  0.0000000000000000  0.0000000000000000   F   F   F
  0.1666666666666643  0.0000000000000000  0.0000000000000000   F   F   F
  0.3333333333333357  0.0000000000000000  0.0000000000000000   F   F   F
  0.5000000000000000  0.0000000000000000  0.0000000000000000   F   F   F
  0.6666666666666643  0.0000000000000000  0.0000000000000000   F   F   F
  0.8333333333333357  0.0000000000000000  0.0000000000000000   F   F   F
  0.0000000000000000  0.2000000000000028  0.0000000000000000   F   F   F
  0.1666666666666643  0.2000000000000028  0.0000000000000000   F   F   F
  0.3333333333333357  0.2000000000000028  0.0000000000000000   F   F   F
  0.5000000000000000  0.2000000000000028  0.0000000000000000   F   F   F
  0.6666666666666643  0.2000000000000028  0.0000000000000000   F   F   F
  0.8333333333333357  0.2000000000000028  0.0000000000000000   F   F   F
  0.0000000000000000  0.3999999999999986  0.0000000000000000   F   F   F
  0.1666666666666643  0.3999999999999986  0.0000000000000000   F   F   F
  0.3333333333333357  0.3999999999999986  0.0000000000000000   F   F   F
  0.5000000000000000  0.3999999999999986  0.0000000000000000   F   F   F
  0.6666666666666643  0.3999999999999986  0.0000000000000000   F   F   F
  0.8333333333333357  0.3999999999999986  0.0000000000000000   F   F   F
  0.0000000000000000  0.6000000000000014  0.0000000000000000   F   F   F
  0.1666666666666643  0.6000000000000014  0.0000000000000000   F   F   F
  0.3333333333333357  0.6000000000000014  0.0000000000000000   F   F   F
  0.5000000000000000  0.6000000000000014  0.0000000000000000   F   F   F
  0.6666666666666643  0.6000000000000014  0.0000000000000000   F   F   F
  0.8333333333333357  0.6000000000000014  0.0000000000000000   F   F   F
  0.0000000000000000  0.7999999999999972  0.0000000000000000   F   F   F
  0.1666666666666643  0.7999999999999972  0.0000000000000000   F   F   F
  0.3333333333333357  0.7999999999999972  0.0000000000000000   F   F   F
  0.5000000000000000  0.7999999999999972  0.0000000000000000   F   F   F
  0.6666666666666643  0.7999999999999972  0.0000000000000000   F   F   F
  0.8333333333333357  0.7999999999999972  0.0000000000000000   F   F   F
  0.0555555555555571  0.0666666666666700  0.0936128444665414   F   F   F
  0.2222222222222214  0.0666666666666700  0.0936128444665414   F   F   F
  0.3888888888888857  0.0666666666666700  0.0936128444665414   F   F   F
  0.5555555555555571  0.0666666666666700  0.0936128444665414   F   F   F
  0.7222222222222214  0.0666666666666700  0.0936128444665414   F   F   F
  0.8888888888888857  0.0666666666666700  0.0936128444665414   F   F   F
  0.0555555555555571  0.2666666666666657  0.0936128444665414   F   F   F
  0.2222222222222214  0.2666666666666657  0.0936128444665414   F   F   F
  0.3888888888888857  0.2666666666666657  0.0936128444665414   F   F   F
  0.5555555555555571  0.2666666666666657  0.0936128444665414   F   F   F
  0.7222222222222214  0.2666666666666657  0.0936128444665414   F   F   F
  0.8888888888888857  0.2666666666666657  0.0936128444665414   F   F   F
  0.0555555555555571  0.4666666666666686  0.0936128444665414   F   F   F
  0.2222222222222214  0.4666666666666686  0.0936128444665414   F   F   F
  0.3888888888888857  0.4666666666666686  0.0936128444665414   F   F   F
  0.5555555555555571  0.4666666666666686  0.0936128444665414   F   F   F
  0.7222222222222214  0.4666666666666686  0.0936128444665414   F   F   F
  0.8888888888888857  0.4666666666666686  0.0936128444665414   F   F   F
  0.0555555555555571  0.6666666666666643  0.0936128444665414   F   F   F
  0.2222222222222214  0.6666666666666643  0.0936128444665414   F   F   F
  0.3888888888888857  0.6666666666666643  0.0936128444665414   F   F   F
  0.5555555555555571  0.6666666666666643  0.0936128444665414   F   F   F
  0.7222222222222214  0.6666666666666643  0.0936128444665414   F   F   F
  0.8888888888888857  0.6666666666666643  0.0936128444665414   F   F   F
  0.0555555555555571  0.8666666666666671  0.0936128444665414   F   F   F
  0.2222222222222214  0.8666666666666671  0.0936128444665414   F   F   F
  0.3888888888888857  0.8666666666666671  0.0936128444665414   F   F   F
  0.5555555555555571  0.8666666666666671  0.0936128444665414   F   F   F
  0.7222222222222214  0.8666666666666671  0.0936128444665414   F   F   F
  0.8888888888888857  0.8666666666666671  0.0936128444665414   F   F   F
  0.9451112601043055  0.1337703563473809  0.1798968785871429   T   T   T
  0.1124666134356576  0.1349537643459074  0.1809409832399379   T   T   T
  0.2780154753695052  0.1338961673103609  0.1806832294867881   T   T   T
  0.4437716752661282  0.1337296634488679  0.1802142570534932   T   T   T
  0.6111389581120614  0.1331645993906126  0.1798798955364709   T   T   T
  0.7780448691618665  0.1333610693490636  0.1798127505702727   T   T   T
  0.9445242049262617  0.3334713155031970  0.1798607096503188   T   T   T
  0.1113791379771831  0.3335723036684032  0.1804927091002604   T   T   T
  0.2771411435540568  0.3328690596002321  0.1802947746597256   T   T   T
  0.4439529743093488  0.3333843600910781  0.1801095911061427   T   T   T
  0.6109705150125848  0.3332485240645041  0.1798167616313407   T   T   T
  0.7778479341760250  0.3331919679517763  0.1797757011932715   T   T   T
  0.9442803172365505  0.5332478704427794  0.1798514783393470   T   T   T
  0.1111468683975669  0.5332172795842729  0.1799028532954553   T   T   T
  0.2781269059144302  0.5324064234297022  0.1802538730344368   T   T   T
  0.4434686038946264  0.5337019130283098  0.1804621565818153   T   T   T
  0.6109360699046622  0.5331634661399649  0.1798744172830798   T   T   T
  0.7776600737025263  0.5332008434831097  0.1798712748510408   T   T   T
  0.9443596117681162  0.7337378351895666  0.1797276180035695   T   T   T
  0.1111045998733948  0.7331027097428329  0.1798342761263408   T   T   T
  0.2783970497877895  0.7314943837352925  0.1805421859361890   T   T   T
  0.4445470683078943  0.7331485914615220  0.1797977971494642   T   T   T
  0.6112784533638007  0.7331898923573271  0.1798217976219700   T   T   T
  0.7779658766895619  0.7333195887074656  0.1797913550565646   T   T   T
  0.9446920890404471  0.9337510127367322  0.1798352647297221   T   T   T
  0.1113428294666090  0.9338971535578926  0.1798437196045072   T   T   T
  0.2778511474283215  0.9331348388112496  0.1798405981111321   T   T   T
  0.4445006688711656  0.9330922023075245  0.1798030614044421   T   T   T
  0.6113303082401951  0.9332367568155522  0.1797820983951806   T   T   T
  0.7779185816399524  0.9335004572879348  0.1797976817007885   T   T   T
  0.0000765537847772  0.0005348445308857  0.2678544783505092   T   T   T
  0.1667754408739954  0.0003333729425325  0.2679547726886958   T   T   T
  0.3339498652644902  0.9981075505393535  0.2677508476434562   T   T   T
  0.5016484919850290  0.9979052123705516  0.2675091805346110   T   T   T
  0.6676842320189915  0.9989973335650093  0.2678608325744248   T   T   T
  0.8335769309617448  0.0001765567644515  0.2677179302310492   T   T   T
  0.0002621076248864  0.2000286613365601  0.2679738414624899   T   T   T
  0.1675653638674733  0.2010609355848808  0.2710630235792157   T   T   T
  0.3361117593309044  0.1962373221854287  0.2695522963875872   T   T   T
  0.5026947717988791  0.1977936069125502  0.2677666227408310   T   T   T
  0.6676164563409168  0.1994178272401388  0.2678272356372709   T   T   T
  0.8337006268697108  0.1998183890844846  0.2677032760529983   T   T   T
  0.9981227042206006  0.4005191960744078  0.2678371294755075   T   T   T
  0.1625015810330055  0.4036619378078492  0.2685168913001341   T   T   T
  0.3342947513083053  0.3971577842075325  0.2680776170419342   T   T   T
  0.5014117765310967  0.3985154809481998  0.2677055925589605   T   T   T
  0.6670572035996774  0.3995723322475046  0.2677352527096353   T   T   T
  0.8331347375642818  0.3997244903228696  0.2677149464356093   T   T   T
  0.9980359457147032  0.6023918363156544  0.2674018141296723   T   T   T
  0.1653372293910651  0.6021666532799449  0.2677928053441001   T   T   T
  0.3329137369207593  0.5985013146695384  0.2704502910175205   T   T   T
  0.5000032980110453  0.5995183252277035  0.2676989537665325   T   T   T
  0.6666169724909146  0.5995977760822520  0.2677887809554190   T   T   T
  0.8327462342528595  0.6003107155403317  0.2677109269967382   T   T   T
  0.9993988587314946  0.8012058885501068  0.2677070668673172   T   T   T
  0.1662769051484863  0.8010306116652115  0.2676036001241912   T   T   T
  0.3334251352292119  0.7996717371972744  0.2676319337250117   T   T   T
  0.5003537624476182  0.7991020466150787  0.2677034707910016   T   T   T
  0.6669531092994236  0.7993610056806555  0.2677367333576537   T   T   T
  0.8330683232109881  0.8004108929250175  0.2677743118760347   T   T   T
 
  0.00000000E+00  0.00000000E+00  0.00000000E+00
  0.00000000E+00  0.00000000E+00  0.00000000E+00
  0.00000000E+00  0.00000000E+00  0.00000000E+00
  0.00000000E+00  0.00000000E+00  0.00000000E+00
  0.00000000E+00  0.00000000E+00  0.00000000E+00
  0.00000000E+00  0.00000000E+00  0.00000000E+00
  0.00000000E+00  0.00000000E+00  0.00000000E+00
  0.00000000E+00  0.00000000E+00  0.00000000E+00
  0.00000000E+00  0.00000000E+00  0.00000000E+00
  0.00000000E+00  0.00000000E+00  0.00000000E+00
  0.00000000E+00  0.00000000E+00  0.00000000E+00
  0.00000000E+00  0.00000000E+00  0.00000000E+00
  0.00000000E+00  0.00000000E+00  0.00000000E+00
  0.00000000E+00  0.00000000E+00  0.00000000E+00
  0.00000000E+00  0.00000000E+00  0.00000000E+00
  0.00000000E+00  0.00000000E+00  0.00000000E+00
  0.00000000E+00  0.00000000E+00  0.00000000E+00
  0.00000000E+00  0.00000000E+00  0.00000000E+00
  0.00000000E+00  0.00000000E+00  0.00000000E+00
  0.00000000E+00  0.00000000E+00  0.00000000E+00
  0.00000000E+00  0.00000000E+00  0.00000000E+00
  0.00000000E+00  0.00000000E+00  0.00000000E+00
  0.00000000E+00  0.00000000E+00  0.00000000E+00
  0.00000000E+00  0.00000000E+00  0.00000000E+00
  0.00000000E+00  0.00000000E+00  0.00000000E+00
  0.00000000E+00  0.00000000E+00  0.00000000E+00
  0.00000000E+00  0.00000000E+00  0.00000000E+00
  0.00000000E+00  0.00000000E+00  0.00000000E+00
  0.00000000E+00  0.00000000E+00  0.00000000E+00
  0.00000000E+00  0.00000000E+00  0.00000000E+00
  0.00000000E+00  0.00000000E+00  0.00000000E+00
  0.00000000E+00  0.00000000E+00  0.00000000E+00
  0.00000000E+00  0.00000000E+00  0.00000000E+00
  0.00000000E+00  0.00000000E+00  0.00000000E+00
  0.00000000E+00  0.00000000E+00  0.00000000E+00
  0.00000000E+00  0.00000000E+00  0.00000000E+00
  0.00000000E+00  0.00000000E+00  0.00000000E+00
  0.00000000E+00  0.00000000E+00  0.00000000E+00
  0.00000000E+00  0.00000000E+00  0.00000000E+00
  0.00000000E+00  0.00000000E+00  0.00000000E+00
  0.00000000E+00  0.00000000E+00  0.00000000E+00
  0.00000000E+00  0.00000000E+00  0.00000000E+00
  0.00000000E+00  0.00000000E+00  0.00000000E+00
  0.00000000E+00  0.00000000E+00  0.00000000E+00
  0.00000000E+00  0.00000000E+00  0.00000000E+00
  0.00000000E+00  0.00000000E+00  0.00000000E+00
  0.00000000E+00  0.00000000E+00  0.00000000E+00
  0.00000000E+00  0.00000000E+00  0.00000000E+00
  0.00000000E+00  0.00000000E+00  0.00000000E+00
  0.00000000E+00  0.00000000E+00  0.00000000E+00
  0.00000000E+00  0.00000000E+00  0.00000000E+00
  0.00000000E+00  0.00000000E+00  0.00000000E+00
  0.00000000E+00  0.00000000E+00  0.00000000E+00
  0.00000000E+00  0.00000000E+00  0.00000000E+00
  0.00000000E+00  0.00000000E+00  0.00000000E+00
  0.00000000E+00  0.00000000E+00  0.00000000E+00
  0.00000000E+00  0.00000000E+00  0.00000000E+00
  0.00000000E+00  0.00000000E+00  0.00000000E+00
  0.00000000E+00  0.00000000E+00  0.00000000E+00
  0.00000000E+00  0.00000000E+00  0.00000000E+00
  0.00000000E+00  0.00000000E+00  0.00000000E+00
  0.00000000E+00  0.00000000E+00  0.00000000E+00
  0.00000000E+00  0.00000000E+00  0.00000000E+00
  0.00000000E+00  0.00000000E+00  0.00000000E+00
  0.00000000E+00  0.00000000E+00  0.00000000E+00
  0.00000000E+00  0.00000000E+00  0.00000000E+00
  0.00000000E+00  0.00000000E+00  0.00000000E+00
  0.00000000E+00  0.00000000E+00  0.00000000E+00
  0.00000000E+00  0.00000000E+00  0.00000000E+00
  0.00000000E+00  0.00000000E+00  0.00000000E+00
  0.00000000E+00  0.00000000E+00  0.00000000E+00
  0.00000000E+00  0.00000000E+00  0.00000000E+00
  0.00000000E+00  0.00000000E+00  0.00000000E+00
  0.00000000E+00  0.00000000E+00  0.00000000E+00
  0.00000000E+00  0.00000000E+00  0.00000000E+00
  0.00000000E+00  0.00000000E+00  0.00000000E+00
  0.00000000E+00  0.00000000E+00  0.00000000E+00
  0.00000000E+00  0.00000000E+00  0.00000000E+00
  0.00000000E+00  0.00000000E+00  0.00000000E+00
  0.00000000E+00  0.00000000E+00  0.00000000E+00
  0.00000000E+00  0.00000000E+00  0.00000000E+00
  0.00000000E+00  0.00000000E+00  0.00000000E+00
  0.00000000E+00  0.00000000E+00  0.00000000E+00
  0.00000000E+00  0.00000000E+00  0.00000000E+00
  0.00000000E+00  0.00000000E+00  0.00000000E+00
  0.00000000E+00  0.00000000E+00  0.00000000E+00
  0.00000000E+00  0.00000000E+00  0.00000000E+00
  0.00000000E+00  0.00000000E+00  0.00000000E+00
  0.00000000E+00  0.00000000E+00  0.00000000E+00
  0.00000000E+00  0.00000000E+00  0.00000000E+00
  0.00000000E+00  0.00000000E+00  0.00000000E+00
  0.00000000E+00  0.00000000E+00  0.00000000E+00
  0.00000000E+00  0.00000000E+00  0.00000000E+00
  0.00000000E+00  0.00000000E+00  0.00000000E+00
  0.00000000E+00  0.00000000E+00  0.00000000E+00
  0.00000000E+00  0.00000000E+00  0.00000000E+00
  0.00000000E+00  0.00000000E+00  0.00000000E+00
  0.00000000E+00  0.00000000E+00  0.00000000E+00
  0.00000000E+00  0.00000000E+00  0.00000000E+00
  0.00000000E+00  0.00000000E+00  0.00000000E+00
  0.00000000E+00  0.00000000E+00  0.00000000E+00
  0.00000000E+00  0.00000000E+00  0.00000000E+00
  0.00000000E+00  0.00000000E+00  0.00000000E+00
  0.00000000E+00  0.00000000E+00  0.00000000E+00
  0.00000000E+00  0.00000000E+00  0.00000000E+00
  0.00000000E+00  0.00000000E+00  0.00000000E+00
  0.00000000E+00  0.00000000E+00  0.00000000E+00
  0.00000000E+00  0.00000000E+00  0.00000000E+00
  0.00000000E+00  0.00000000E+00  0.00000000E+00
  0.00000000E+00  0.00000000E+00  0.00000000E+00
  0.00000000E+00  0.00000000E+00  0.00000000E+00
  0.00000000E+00  0.00000000E+00  0.00000000E+00
  0.00000000E+00  0.00000000E+00  0.00000000E+00
  0.00000000E+00  0.00000000E+00  0.00000000E+00
  0.00000000E+00  0.00000000E+00  0.00000000E+00
  0.00000000E+00  0.00000000E+00  0.00000000E+00
  0.00000000E+00  0.00000000E+00  0.00000000E+00
  0.00000000E+00  0.00000000E+00  0.00000000E+00
  0.00000000E+00  0.00000000E+00  0.00000000E+00
  0.00000000E+00  0.00000000E+00  0.00000000E+00
  0.00000000E+00  0.00000000E+00  0.00000000E+00
  0.00000000E+00  0.00000000E+00  0.00000000E+00
  0.00000000E+00  0.00000000E+00  0.00000000E+00
  0.00000000E+00  0.00000000E+00  0.00000000E+00
  0.00000000E+00  0.00000000E+00  0.00000000E+00
  0.00000000E+00  0.00000000E+00  0.00000000E+00
  0.00000000E+00  0.00000000E+00  0.00000000E+00
  0.00000000E+00  0.00000000E+00  0.00000000E+00
  0.00000000E+00  0.00000000E+00  0.00000000E+00
  0.00000000E+00  0.00000000E+00  0.00000000E+00
  0.00000000E+00  0.00000000E+00  0.00000000E+00
  0.00000000E+00  0.00000000E+00  0.00000000E+00
  0.00000000E+00  0.00000000E+00  0.00000000E+00
  0.00000000E+00  0.00000000E+00  0.00000000E+00
